
%FILE DATA:	Soccer Computational Problem for MiniZinc Models	%
%AUTHOR:	Jack Wall	%
%CONTACT:  	116397063@umail.ucc.ie			%
%LAST UPDATE:	03/02/2020, 19:05:33						%
%DESCRIPTION: 	120 games played with 12 games left				%


n=12; %number of teams

%Games to play
games=[|5,1|12,9|11,3|9,10|2,10|11,12|7,6|10,3|11,7|9,11|6,7|7,12|];

%Initial points
iPoints=[30,27,25,39,35,30,25,24,16,28,15,26];

%POSITION CONSTRAINTS
% [|teamID, operator, position|...]
% operators index:
%  1 for =  operator
%  2 for >  operator
%  3 for >= operator
%  4 for <  operator
%  5 for <= operator
positionConstraints=[|4,4,2|5,4,3|12,1,3|10,5,4|];